StudentsNr = 10;
InstructorsNr = 92;
DaysNr = 1;
SlotsPerDay = 10;
AvailabilitySlotsLenght = 2;
RoomNr = 2;
ProgrammNr = 1;
DegreeNr = 1;
RolesNr = 4;
CoursesNr = 10;
InstructorsProgramm = [{1}, {1}, {1}, {1}, {1}, {1}, {1}, {1}, {1}, {1}, {1}, {1}, {1}, {1}, {1}, {1}, {1}, {1}, {1}, {1}, {1}, {1}, {1}, {1}, {1}, {1}, {1}, {1}, {1}, {1}, {1}, {1}, {1}, {1}, {1}, {1}, {1}, {1}, {1}, {1}, {1}, {1}, {1}, {1}, {1}, {1}, {1}, {1}, {1}, {1}, {1}, {1}, {1}, {1}, {1}, {1}, {1}, {1}, {1}, {1}, {1}, {1}, {1}, {1}, {1}, {1}, {1}, {1}, {1}, {1}, {1}, {1}, {1}, {1}, {1}, {1}, {1}, {1}, {1}, {1}, {1}, {1}, {1}, {1}, {1}, {1}, {1}, {1}, {1}, {1}, {1}, {1}];
InstructorRolesPerProgramm = [|{2, 4, 5, 11, 13, 18, 19, 21, 23, 24, 26, 28, 29, 32, 35, 36, 37, 39, 41, 45, 47, 48, 49, 54, 55, 56, 59, 61, 64, 73, 80, 82, 83, 87, 89, 92}, {1, 6, 8, 10, 13, 14, 15, 20, 21, 22, 25, 26, 28, 32, 37, 38, 41, 43, 45, 46, 54, 56, 57, 59, 62, 63, 64, 68, 71, 74, 75, 76, 77, 79, 83, 85, 88, 89, 90}, {2, 4, 5, 8, 9, 13, 16, 21, 22, 23, 24, 26, 29, 31, 33, 36, 40, 41, 43, 47, 51, 54, 57, 58, 60, 61, 62, 71, 72, 73, 74, 75, 76, 78, 85, 86, 92}, {2, 5, 7, 8, 9, 14, 16, 18, 21, 22, 23, 27, 28, 29, 30, 31, 32, 34, 39, 40, 41, 42, 46, 47, 50, 51, 62, 68, 73, 75, 77, 81, 82, 86, 88, 90}|];
InstructorsAvailability = [|0, 0, 0, 0, 0, |1, 1, 1, 1, 1, |1, 1, 1, 1, 1, |1, 1, 1, 1, 1, |0, 0, 1, 1, 0, |0, 0, 1, 1, 0, |0, 1, 1, 1, 0, |0, 0, 0, 1, 1, |1, 1, 1, 0, 1, |1, 1, 1, 1, 1, |1, 1, 0, 0, 1, |0, 1, 1, 0, 0, |1, 1, 1, 0, 0, |1, 0, 0, 1, 1, |1, 1, 1, 1, 1, |1, 1, 1, 0, 1, |1, 1, 1, 1, 1, |0, 1, 1, 1, 1, |1, 0, 1, 1, 1, |0, 0, 0, 1, 0, |1, 1, 1, 1, 1, |0, 1, 1, 1, 1, |1, 1, 1, 1, 1, |0, 1, 1, 0, 1, |0, 1, 0, 1, 1, |1, 1, 1, 1, 1, |0, 0, 1, 0, 1, |1, 1, 1, 1, 1, |0, 1, 1, 0, 0, |1, 1, 1, 1, 1, |0, 1, 1, 1, 0, |0, 1, 1, 1, 1, |1, 0, 1, 1, 1, |0, 1, 1, 1, 1, |1, 1, 1, 1, 1, |0, 0, 1, 1, 1, |0, 0, 1, 1, 1, |0, 1, 1, 1, 1, |0, 1, 1, 0, 0, |1, 1, 1, 1, 1, |1, 1, 1, 0, 1, |1, 1, 0, 1, 1, |0, 1, 1, 1, 1, |1, 1, 1, 1, 1, |0, 0, 1, 0, 1, |0, 1, 1, 1, 1, |0, 0, 0, 1, 1, |1, 1, 1, 1, 0, |0, 0, 0, 1, 1, |0, 0, 1, 0, 1, |1, 0, 1, 0, 0, |1, 1, 1, 1, 1, |0, 0, 1, 1, 1, |0, 1, 1, 1, 1, |1, 1, 1, 1, 0, |1, 1, 0, 0, 0, |0, 1, 1, 1, 1, |0, 0, 1, 0, 1, |1, 1, 1, 1, 1, |1, 1, 0, 1, 0, |1, 1, 1, 0, 0, |1, 1, 1, 0, 0, |0, 1, 1, 1, 1, |1, 1, 1, 1, 0, |1, 1, 1, 1, 0, |1, 1, 1, 1, 1, |1, 1, 0, 1, 1, |1, 1, 0, 1, 0, |1, 1, 1, 1, 1, |0, 0, 1, 1, 1, |0, 1, 1, 1, 1, |0, 0, 1, 1, 0, |0, 1, 0, 0, 0, |0, 1, 0, 1, 0, |0, 0, 0, 1, 1, |1, 1, 1, 1, 1, |0, 1, 1, 1, 1, |1, 1, 1, 1, 1, |0, 0, 1, 1, 1, |0, 0, 1, 1, 1, |1, 1, 1, 0, 1, |0, 0, 1, 1, 1, |1, 1, 1, 1, 1, |1, 0, 0, 1, 1, |1, 1, 1, 0, 1, |0, 1, 1, 1, 1, |1, 1, 1, 0, 0, |1, 1, 1, 1, 1, |0, 1, 0, 1, 1, |0, 0, 0, 1, 1, |0, 1, 1, 0, 1, |1, 1, 1, 1, 1|];
StudentsProgramm = [1, 1, 1, 1, 1, 1, 1, 1, 1, 1];
StudentsDegree = [1, 1, 1, 1, 1, 1, 1, 1, 1, 1];
StudentsSupervisorId = [11, 64, 21, 5, 75, 43, 85, 48, 29, 9];
StudentsCourseIds = [{2, 6}, {1, 2}, {5, 6}, {4, 9}, {2, 6}, {5, 6}, {4, 6}, {2, 4}, {8, 10}, {2, 8}];
StudentsAvailability = [|1, 1, 0, 0, 1, |1, 1, 1, 1, 1, |1, 1, 1, 1, 1, |0, 1, 1, 1, 1, |0, 1, 1, 0, 1, |1, 1, 1, 1, 1, |1, 1, 1, 0, 0, |1, 1, 1, 1, 1, |1, 1, 1, 0, 0, |0, 0, 1, 1, 1|];
TheoryticalMinCard = [0, 0, 0, 0, 0, 0, 0, 0, 0, 0];
CoursesInstructorIds = [{2, 3, 4, 6, 8, 10, 13, 18, 20, 24, 25, 29, 30, 34, 36, 38, 42, 47, 48, 49, 52, 54, 56, 57, 58, 60, 61, 65, 67, 71, 74, 75, 78, 79, 82, 84, 92}, {1, 2, 6, 11, 12, 26, 29, 34, 36, 56, 61, 66, 74, 75, 84, 85}, {2, 27, 35, 56, 83}, {7, 11, 17, 18, 19, 24, 27, 28, 29, 33, 34, 36, 40, 41, 44, 47, 49, 51, 53, 54, 59, 60, 61, 67, 68, 70, 79, 81, 84, 87, 92}, {1, 2, 4, 6, 8, 9, 10, 11, 13, 14, 16, 22, 23, 25, 26, 27, 35, 36, 37, 40, 41, 42, 44, 45, 46, 47, 48, 49, 50, 51, 52, 53, 54, 57, 58, 59, 63, 64, 65, 66, 70, 73, 75, 77, 78, 79, 80, 84, 86, 87, 88, 89, 90, 91, 92}, {5, 10, 13, 14, 15, 23, 25, 39, 43, 61, 62, 66, 71, 79, 84, 86, 89, 90}, {5, 12, 15, 20, 47, 48, 52, 53, 57, 71, 72, 73, 84}, {2, 6, 7, 8, 17, 26, 27, 29, 30, 31, 33, 36, 38, 42, 44, 49, 50, 52, 56, 58, 63, 65, 67, 71, 73, 74, 76, 78, 79, 83, 84, 85, 86, 90}, {2, 4, 5, 8, 10, 14, 16, 19, 23, 24, 25, 26, 27, 31, 32, 35, 37, 38, 39, 41, 42, 43, 44, 45, 51, 52, 54, 61, 64, 66, 72, 73, 75, 78, 79, 80, 81, 82, 84, 87, 88, 90}, {4, 6, 15, 19, 20, 25, 27, 28, 30, 34, 36, 43, 44, 49, 51, 54, 76, 77, 85, 86, 88}];
RolesDemands = [17, 32, 32, 1];
RolesContinuity = [4, 2, 1];
ExamLen = [2, 2, 2, 2, 2, 2, 2, 2, 2, 2];
LunchTsMinLen = 1;
LunchStarts = [5..6];
SupervisorAvailable = 5;
OptimalLunchLenght = [0, 3];
OptimalStartTs = [2, 0];
OptimalFinishTs = [1, 10];
MinimizeRooms = 400;
RolesSoftContinuity = [|1, 2, 3, 4|4, 4, 3, 2|];
SameDegreeInRoom = 0;
Mergeability = 1;
